NAME: ulysses16.tsp
TYPE: TSP
COMMENT: Odyssey of Ulysses (Groetschel/Padberg)
DIMENSION: 14
EDGE_WEIGHT_TYPE: GEO
DISPLAY_DATA_TYPE: COORD_DISPLAY
NODE_COORD_SECTION
 0 38.24 20.42
 1 39.57 26.15
 2 40.56 25.32
 3 36.26 23.12
 4 33.48 10.54
 5 37.56 12.19
 6 38.42 13.11
 7 37.52 20.44
 8 41.23 9.10
 9 41.17 13.05
 10 36.08 -5.21
 11 38.47 15.13
 12 38.15 15.35
 13 37.51 15.17
 EOF

